*NODE, NSET=NALL
1, 0.0, 0.0, 0.0
2, 100.0, 0.0, 0.0
3, 200.0, 0.0, 0.0
4, 300.0, 0.0, 0.0
5, 400.0, 0.0, 0.0
6, 500.0, 0.0, 0.0
7, 600.0, 0.0, 0.0
8, 700.0, 0.0, 0.0
9, 800.0, 0.0, 0.0
10, 900.0, 0.0, 0.0
11, 1000.0, 0.0, 0.0
12, 1100.0, 0.0, 0.0
13, 1200.0, 0.0, 0.0
14, 1300.0, 0.0, 0.0
15, 1400.0, 0.0, 0.0
16, 1500.0, 0.0, 0.0
17, 1600.0, 0.0, 0.0
18, 1700.0, 0.0, 0.0
19, 1800.0, 0.0, 0.0
20, 1900.0, 0.0, 0.0
21, 2000.0, 0.0, 0.0
22, 0.0, 1200.0, 0.0
23, 100.0, 1200.0, 0.0
24, 200.0, 1200.0, 0.0
25, 300.0, 1200.0, 0.0
26, 400.0, 1200.0, 0.0
27, 500.0, 1200.0, 0.0
28, 600.0, 1200.0, 0.0
29, 700.0, 1200.0, 0.0
30, 800.0, 1200.0, 0.0
31, 900.0, 1200.0, 0.0
32, 1000.0, 1200.0, 0.0
33, 1100.0, 1200.0, 0.0
34, 1200.0, 1200.0, 0.0
35, 1300.0, 1200.0, 0.0
36, 1400.0, 1200.0, 0.0
37, 1500.0, 1200.0, 0.0
38, 1600.0, 1200.0, 0.0
39, 1700.0, 1200.0, 0.0
40, 1800.0, 1200.0, 0.0
41, 1900.0, 1200.0, 0.0
42, 2000.0, 1200.0, 0.0
43, 0.0, 100.0, 0.0
44, 0.0, 200.0, 0.0
45, 0.0, 300.0, 0.0
46, 0.0, 400.0, 0.0
47, 0.0, 500.0, 0.0
48, 0.0, 600.0, 0.0
49, 0.0, 700.0, 0.0
50, 0.0, 800.0, 0.0
51, 0.0, 900.0, 0.0
52, 0.0, 1000.0, 0.0
53, 0.0, 1100.0, 0.0
54, 1000.0, 100.0, 0.0
55, 1000.0, 200.0, 0.0
56, 1000.0, 300.0, 0.0
57, 1000.0, 400.0, 0.0
58, 1000.0, 500.0, 0.0
59, 1000.0, 600.0, 0.0
60, 1000.0, 700.0, 0.0
61, 1000.0, 800.0, 0.0
62, 1000.0, 900.0, 0.0
63, 1000.0, 1000.0, 0.0
64, 1000.0, 1100.0, 0.0
65, 2000.0, 100.0, 0.0
66, 2000.0, 200.0, 0.0
67, 2000.0, 300.0, 0.0
68, 2000.0, 400.0, 0.0
69, 2000.0, 500.0, 0.0
70, 2000.0, 600.0, 0.0
71, 2000.0, 700.0, 0.0
72, 2000.0, 800.0, 0.0
73, 2000.0, 900.0, 0.0
74, 2000.0, 1000.0, 0.0
75, 2000.0, 1100.0, 0.0
76, 500.0, 100.0, 0.0
77, 500.0, 200.0, 0.0
78, 500.0, 300.0, 0.0
79, 500.0, 400.0, 0.0
80, 500.0, 500.0, 0.0
81, 500.0, 600.0, 0.0
82, 500.0, 700.0, 0.0
83, 500.0, 800.0, 0.0
84, 500.0, 900.0, 0.0
85, 500.0, 1000.0, 0.0
86, 500.0, 1100.0, 0.0
87, 1500.0, 100.0, 0.0
88, 1500.0, 200.0, 0.0
89, 1500.0, 300.0, 0.0
90, 1500.0, 400.0, 0.0
91, 1500.0, 500.0, 0.0
92, 1500.0, 600.0, 0.0
93, 1500.0, 700.0, 0.0
94, 1500.0, 800.0, 0.0
95, 1500.0, 900.0, 0.0
96, 1500.0, 1000.0, 0.0
97, 1500.0, 1100.0, 0.0
98, -1090.0, 600.0, -85.0
99, -1035.5, 600.0, -85.0
100, -981.0, 600.0, -85.0
101, -926.5, 600.0, -85.0
102, -872.0, 600.0, -85.0
103, -817.5, 600.0, -85.0
104, -763.0, 600.0, -85.0
105, -708.5, 600.0, -85.0
106, -654.0, 600.0, -85.0
107, -599.5, 600.0, -85.0
108, -545.0, 600.0, -85.0
109, -490.5, 600.0, -85.0
110, -436.0, 600.0, -85.0
111, -381.5, 600.0, -85.0
112, -327.0, 600.0, -85.0
113, -272.5, 600.0, -85.0
114, -218.0, 600.0, -85.0
115, -163.5, 600.0, -85.0
116, -109.0, 600.0, -85.0
117, -54.5, 600.0, -85.0
118, 0.0, 600.0, -85.0
119, 100.0, 600.0, -85.0
120, 200.0, 600.0, -85.0
121, 300.0, 600.0, -85.0
122, 400.0, 600.0, -85.0
123, 500.0, 600.0, -85.0
124, 600.0, 600.0, -85.0
125, 700.0, 600.0, -85.0
126, 800.0, 600.0, -85.0
127, 900.0, 600.0, -85.0
128, 1000.0, 600.0, -85.0
129, 1010.0, 600.0, -85.0
130, 1020.0, 600.0, -85.0
131, 0.0, 600.0, -42.5
132, 1000.0, 600.0, -42.5
*ELEMENT, TYPE=B32R, ELSET=RAILS
1, 1, 2, 3
2, 3, 4, 5
3, 5, 6, 7
4, 7, 8, 9
5, 9, 10, 11
6, 11, 12, 13
7, 13, 14, 15
8, 15, 16, 17
9, 17, 18, 19
10, 19, 20, 21
11, 22, 23, 24
12, 24, 25, 26
13, 26, 27, 28
14, 28, 29, 30
15, 30, 31, 32
16, 32, 33, 34
17, 34, 35, 36
18, 36, 37, 38
19, 38, 39, 40
20, 40, 41, 42
*ELEMENT, TYPE=B32R, ELSET=CROSS
21, 1, 43, 44
22, 44, 45, 46
23, 46, 47, 48
24, 48, 49, 50
25, 50, 51, 52
26, 52, 53, 22
27, 11, 54, 55
28, 55, 56, 57
29, 57, 58, 59
30, 59, 60, 61
31, 61, 62, 63
32, 63, 64, 32
33, 21, 65, 66
34, 66, 67, 68
35, 68, 69, 70
36, 70, 71, 72
37, 72, 73, 74
38, 74, 75, 42
39, 6, 76, 77
40, 77, 78, 79
41, 79, 80, 81
42, 81, 82, 83
43, 83, 84, 85
44, 85, 86, 27
45, 16, 87, 88
46, 88, 89, 90
47, 90, 91, 92
48, 92, 93, 94
49, 94, 95, 96
50, 96, 97, 37
*ELEMENT, TYPE=B32R, ELSET=DRAWBAR
51, 98, 99, 100
52, 100, 101, 102
53, 102, 103, 104
54, 104, 105, 106
55, 106, 107, 108
56, 108, 109, 110
57, 110, 111, 112
58, 112, 113, 114
59, 114, 115, 116
60, 116, 117, 118
61, 118, 119, 120
62, 120, 121, 122
63, 122, 123, 124
64, 124, 125, 126
65, 126, 127, 128
66, 128, 129, 130
*ELEMENT, TYPE=B32R, ELSET=ANGLES
67, 48, 131, 118
*ELEMENT, TYPE=B32R, ELSET=LAPLINK
68, 59, 132, 128
*MATERIAL, NAME=S355
*ELASTIC
210000., 0.3
*BEAM SECTION, ELSET=RAILS, MATERIAL=S355, SECTION=BOX
50., 50., 3., 3., 3., 3.
0., 0., 1.
*BEAM SECTION, ELSET=CROSS, MATERIAL=S355, SECTION=BOX
50., 50., 3., 3., 3., 3.
0., 0., 1.
*BEAM SECTION, ELSET=DRAWBAR, MATERIAL=S355, SECTION=BOX
50., 100., 4., 4., 4., 4.
0., 1., 0.
*BEAM SECTION, ELSET=ANGLES, MATERIAL=S355, SECTION=RECT
120., 16.
1., 0., 0.
*BEAM SECTION, ELSET=LAPLINK, MATERIAL=S355, SECTION=RECT
30., 30.
1., 0., 0.
** LC: 3g vertical, 400 kg deck payload spread over both rails.
** Total 11772 N down; supports: coupling + axle brackets.
** Hand-calc envelope for comparison: isolated rail UDL gives ~64 MPa;
** the continuous frame should come in lower.
*BOUNDARY
98, 1, 3
12, 3, 3
33, 3, 3
12, 2, 2
*STEP
*STATIC
*CLOAD
1, 3, -280.286
2, 3, -280.286
3, 3, -280.286
4, 3, -280.286
5, 3, -280.286
6, 3, -280.286
7, 3, -280.286
8, 3, -280.286
9, 3, -280.286
10, 3, -280.286
11, 3, -280.286
12, 3, -280.286
13, 3, -280.286
14, 3, -280.286
15, 3, -280.286
16, 3, -280.286
17, 3, -280.286
18, 3, -280.286
19, 3, -280.286
20, 3, -280.286
21, 3, -280.286
22, 3, -280.286
23, 3, -280.286
24, 3, -280.286
25, 3, -280.286
26, 3, -280.286
27, 3, -280.286
28, 3, -280.286
29, 3, -280.286
30, 3, -280.286
31, 3, -280.286
32, 3, -280.286
33, 3, -280.286
34, 3, -280.286
35, 3, -280.286
36, 3, -280.286
37, 3, -280.286
38, 3, -280.286
39, 3, -280.286
40, 3, -280.286
41, 3, -280.286
42, 3, -280.286
*NODE FILE
U
*EL FILE
S
*EL PRINT, ELSET=RAILS
S
*EL PRINT, ELSET=CROSS
S
*EL PRINT, ELSET=DRAWBAR
S
*EL PRINT, ELSET=ANGLES
S
*EL PRINT, ELSET=LAPLINK
S
*NODE PRINT, NSET=NALL, TOTALS=ONLY
RF
*END STEP
