*NODE, NSET=NALL
1, 0.0, 0.0, 0.0
2, 100.0, 0.0, 0.0
3, 200.0, 0.0, 0.0
4, 300.0, 0.0, 0.0
5, 400.0, 0.0, 0.0
6, 500.0, 0.0, 0.0
7, 600.0, 0.0, 0.0
8, 700.0, 0.0, 0.0
9, 800.0, 0.0, 0.0
10, 900.0, 0.0, 0.0
11, 1000.0, 0.0, 0.0
12, 1100.0, 0.0, 0.0
13, 1200.0, 0.0, 0.0
14, 1300.0, 0.0, 0.0
15, 1400.0, 0.0, 0.0
16, 1500.0, 0.0, 0.0
17, 1600.0, 0.0, 0.0
18, 1700.0, 0.0, 0.0
19, 1800.0, 0.0, 0.0
20, 1900.0, 0.0, 0.0
21, 2000.0, 0.0, 0.0
22, 0.0, 1200.0, 0.0
23, 100.0, 1200.0, 0.0
24, 200.0, 1200.0, 0.0
25, 300.0, 1200.0, 0.0
26, 400.0, 1200.0, 0.0
27, 500.0, 1200.0, 0.0
28, 600.0, 1200.0, 0.0
29, 700.0, 1200.0, 0.0
30, 800.0, 1200.0, 0.0
31, 900.0, 1200.0, 0.0
32, 1000.0, 1200.0, 0.0
33, 1100.0, 1200.0, 0.0
34, 1200.0, 1200.0, 0.0
35, 1300.0, 1200.0, 0.0
36, 1400.0, 1200.0, 0.0
37, 1500.0, 1200.0, 0.0
38, 1600.0, 1200.0, 0.0
39, 1700.0, 1200.0, 0.0
40, 1800.0, 1200.0, 0.0
41, 1900.0, 1200.0, 0.0
42, 2000.0, 1200.0, 0.0
43, 0.0, 56.25, 0.0
44, 0.0, 112.5, 0.0
45, 0.0, 168.75, 0.0
46, 0.0, 225.0, 0.0
47, 0.0, 318.75, 0.0
48, 0.0, 412.5, 0.0
49, 0.0, 506.25, 0.0
50, 0.0, 600.0, 0.0
51, 0.0, 693.75, 0.0
52, 0.0, 787.5, 0.0
53, 0.0, 881.25, 0.0
54, 0.0, 975.0, 0.0
55, 0.0, 1031.25, 0.0
56, 0.0, 1087.5, 0.0
57, 0.0, 1143.75, 0.0
58, 1000.0, 100.0, 0.0
59, 1000.0, 200.0, 0.0
60, 1000.0, 300.0, 0.0
61, 1000.0, 400.0, 0.0
62, 1000.0, 500.0, 0.0
63, 1000.0, 600.0, 0.0
64, 1000.0, 700.0, 0.0
65, 1000.0, 800.0, 0.0
66, 1000.0, 900.0, 0.0
67, 1000.0, 1000.0, 0.0
68, 1000.0, 1100.0, 0.0
69, 2000.0, 100.0, 0.0
70, 2000.0, 200.0, 0.0
71, 2000.0, 300.0, 0.0
72, 2000.0, 400.0, 0.0
73, 2000.0, 500.0, 0.0
74, 2000.0, 600.0, 0.0
75, 2000.0, 700.0, 0.0
76, 2000.0, 800.0, 0.0
77, 2000.0, 900.0, 0.0
78, 2000.0, 1000.0, 0.0
79, 2000.0, 1100.0, 0.0
80, 600.0, 0.0, -35.0
81, 500.0, 37.5, -35.0
82, 400.0, 75.0, -35.0
83, 300.0, 112.5, -35.0
84, 200.0, 150.0, -35.0
85, 100.0, 187.5, -35.0
86, 0.0, 225.0, -35.0
87, -100.0, 262.5, -35.0
88, -200.0, 300.0, -35.0
89, -300.0, 337.5, -35.0
90, -400.0, 375.0, -35.0
91, -500.0, 412.5, -35.0
92, -600.0, 450.0, -35.0
93, -700.0, 487.5, -35.0
94, -800.0, 525.0, -35.0
95, -900.0, 562.5, -35.0
96, -1000.0, 600.0, -35.0
97, 600.0, 0.0, -17.5
98, 0.0, 225.0, -17.5
99, 600.0, 1200.0, -35.0
100, 500.0, 1162.5, -35.0
101, 400.0, 1125.0, -35.0
102, 300.0, 1087.5, -35.0
103, 200.0, 1050.0, -35.0
104, 100.0, 1012.5, -35.0
105, 0.0, 975.0, -35.0
106, -100.0, 937.5, -35.0
107, -200.0, 900.0, -35.0
108, -300.0, 862.5, -35.0
109, -400.0, 825.0, -35.0
110, -500.0, 787.5, -35.0
111, -600.0, 750.0, -35.0
112, -700.0, 712.5, -35.0
113, -800.0, 675.0, -35.0
114, -900.0, 637.5, -35.0
115, 600.0, 1200.0, -17.5
116, 0.0, 975.0, -17.5
117, -1045.0, 600.0, -35.0
118, -1090.0, 600.0, -35.0
*ELEMENT, TYPE=B32R, ELSET=RAILS
1, 1, 2, 3
2, 3, 4, 5
3, 5, 6, 7
4, 7, 8, 9
5, 9, 10, 11
6, 11, 12, 13
7, 13, 14, 15
8, 15, 16, 17
9, 17, 18, 19
10, 19, 20, 21
11, 22, 23, 24
12, 24, 25, 26
13, 26, 27, 28
14, 28, 29, 30
15, 30, 31, 32
16, 32, 33, 34
17, 34, 35, 36
18, 36, 37, 38
19, 38, 39, 40
20, 40, 41, 42
*ELEMENT, TYPE=B32R, ELSET=CROSS
21, 1, 43, 44
22, 44, 45, 46
23, 46, 47, 48
24, 48, 49, 50
25, 50, 51, 52
26, 52, 53, 54
27, 54, 55, 56
28, 56, 57, 22
29, 11, 58, 59
30, 59, 60, 61
31, 61, 62, 63
32, 63, 64, 65
33, 65, 66, 67
34, 67, 68, 32
35, 21, 69, 70
36, 70, 71, 72
37, 72, 73, 74
38, 74, 75, 76
39, 76, 77, 78
40, 78, 79, 42
*ELEMENT, TYPE=B32R, ELSET=DRAWBAR
41, 80, 81, 82
42, 82, 83, 84
43, 84, 85, 86
44, 86, 87, 88
45, 88, 89, 90
46, 90, 91, 92
47, 92, 93, 94
48, 94, 95, 96
51, 99, 100, 101
52, 101, 102, 103
53, 103, 104, 105
54, 105, 106, 107
55, 107, 108, 109
56, 109, 110, 111
57, 111, 112, 113
58, 113, 114, 96
*ELEMENT, TYPE=B32R, ELSET=APEX
61, 96, 117, 118
*ELEMENT, TYPE=B32R, ELSET=VJOINT
49, 7, 97, 80
50, 46, 98, 86
59, 28, 115, 99
60, 54, 116, 105
*MATERIAL, NAME=S355
*ELASTIC
210000., 0.3
*BEAM SECTION, ELSET=RAILS, MATERIAL=S355, SECTION=BOX
50., 50., 3., 3., 3., 3.
0., 0., 1.
*BEAM SECTION, ELSET=CROSS, MATERIAL=S355, SECTION=BOX
50., 50., 3., 3., 3., 3.
0., 0., 1.
*BEAM SECTION, ELSET=DRAWBAR, MATERIAL=S355, SECTION=BOX
50., 50., 3., 3., 3., 3.
0., 0., 1.
*BEAM SECTION, ELSET=APEX, MATERIAL=S355, SECTION=RECT
110., 70.
0., 1., 0.
*BEAM SECTION, ELSET=VJOINT, MATERIAL=S355, SECTION=RECT
30., 30.
1., 0., 0.
** LC: diagonal racking - three frame corners held, the fourth
** lifted 30 mm. Shows the torsional load path of the BOLTED
** (non-welded) frame. Joints idealized rigid -> stresses are
** load-path indicators; RF at the lifted corner = torsional
** stiffness of the ladder frame.
*BOUNDARY
1, 1, 3
22, 1, 1
22, 3, 3
21, 3, 3
*STEP
*STATIC
*BOUNDARY
42, 3, 3, 30.0
*NODE FILE
U
*EL FILE
S
*EL PRINT, ELSET=RAILS
S
*EL PRINT, ELSET=CROSS
S
*EL PRINT, ELSET=DRAWBAR
S
*EL PRINT, ELSET=APEX
S
*EL PRINT, ELSET=VJOINT
S
*NODE PRINT, NSET=NALL, TOTALS=ONLY
RF
*END STEP
